c FILE: DSJC500.1
c
c SOURCE: David Johnson (dsj@research.att.com)
c
c DESCRIPTION: Random graph used in the paper
c              "Optimization by Simulated Annealing: An
c               Experimental Evaluation; Part II, Graph
c               Coloring and Number Partitioning" by
c              David S. Johnson, Cecilia R. Aragon, 
c              Lyle A. McGeoch and Catherine Schevon
c              Operations Research, 39, 378-406 (1991)
c
p edge 500 24916
e 22 8
e 39 32
e 40 8
e 40 24
e 42 40
e 45 24
e 47 32
e 48 16
e 51 32
e 54 16
e 54 24
e 54 48
e 55 24
e 56 16
e 56 32
e 57 48
e 59 24
e 59 32
e 59 48
e 61 32
e 61 48
e 61 56
e 66 64
e 67 64
e 68 48
e 69 56
e 70 56
e 72 24
e 73 8
e 74 56
e 74 64
e 75 32
e 76 24
e 76 32
e 79 40
e 79 48
e 80 8
e 81 8
e 83 56
e 83 72
e 84 32
e 84 48
e 85 16
e 86 8
e 86 56
e 87 24
e 87 48
e 88 32
e 89 8
e 89 32
e 89 40
e 90 8
e 90 40
e 90 80
e 92 80
e 93 40
e 94 56
e 96 24
e 97 64
e 97 80
e 98 24
e 98 40
e 98 96
e 100 16
e 100 32
e 100 48
e 102 8
e 102 80
e 103 8
e 104 56
e 104 72
e 105 16
e 105 56
e 105 64
e 105 80
e 105 96
e 106 64
e 107 56
e 108 40
e 108 72
e 109 104
e 110 8
e 112 24
e 113 48
e 114 32
e 115 24
e 115 32
e 115 56
e 116 80
e 117 32
e 117 80
e 117 112
e 118 96
e 119 80
e 119 96
e 121 56
e 121 64
e 122 88
e 123 48
e 123 88
e 125 80
e 125 112
e 126 72
e 127 56
e 127 104
e 128 32
e 129 8
e 129 56
e 129 64
e 129 80
e 130 72
e 130 96
e 131 16
e 131 32
e 132 16
e 132 48
e 132 96
e 132 104
e 133 120
e 133 128
e 135 56
e 135 64
e 135 88
e 135 120
e 136 16
e 136 32
e 136 64
e 136 104
e 138 24
e 138 56
e 138 64
e 138 80
e 138 112
e 139 8
e 139 32
e 139 64
e 140 32
e 140 48
e 140 96
e 141 96
e 142 80
e 143 32
e 143 64
e 143 72
e 143 136
e 144 88
e 144 96
e 145 16
e 145 112
e 146 24
e 146 32
e 146 96
e 146 144
e 147 104
e 148 32
e 148 64
e 149 16
e 150 80
e 150 88
e 151 120
e 151 144
e 152 16
e 152 32
e 152 104
e 152 120
e 153 144
e 155 16
e 155 32
e 155 40
e 156 40
e 156 64
e 156 144
e 157 88
e 157 96
e 157 104
e 157 120
e 158 80
e 158 128
e 159 56
e 159 64
e 159 136
e 160 16
e 160 88
e 160 112
e 161 16
e 161 64
e 161 120
e 162 16
e 163 16
e 163 120
e 165 24
e 165 48
e 165 88
e 165 120
e 166 72
e 168 40
e 168 128
e 168 144
e 169 40
e 170 24
e 170 32
e 170 88
e 170 168
e 171 8
e 171 16
e 171 32
e 171 40
e 171 72
e 172 96
e 172 120
e 173 8
e 173 40
e 173 160
e 174 128
e 175 88
e 175 128
e 176 24
e 176 40
e 177 128
e 179 16
e 179 32
e 179 48
e 179 80
e 180 40
e 180 88
e 180 128
e 182 96
e 183 176
e 184 144
e 184 168
e 185 120
e 185 136
e 186 16
e 186 104
e 186 112
e 187 16
e 188 24
e 188 32
e 188 40
e 188 64
e 188 72
e 188 112
e 188 136
e 189 40
e 189 64
e 189 176
e 190 136
e 191 8
e 191 40
e 191 48
e 191 112
e 192 8
e 192 32
e 192 72
e 192 120
e 192 168
e 192 176
e 193 72
e 193 80
e 193 120
e 193 192
e 195 32
e 195 120
e 196 8
e 197 160
e 198 160
e 199 88
e 200 8
e 200 104
e 200 120
e 200 176
e 201 80
e 201 104
e 202 64
e 203 24
e 203 32
e 203 80
e 203 88
e 203 96
e 203 136
e 203 152
e 203 168
e 204 8
e 204 80
e 204 200
e 205 152
e 206 152
e 207 72
e 207 80
e 208 16
e 208 40
e 209 56
e 209 96
e 209 152
e 210 16
e 210 24
e 210 88
e 210 208
e 211 16
e 211 120
e 211 192
e 211 200
e 213 16
e 213 96
e 213 176
e 214 40
e 214 48
e 214 136
e 214 144
e 215 56
e 215 112
e 215 120
e 216 48
e 216 144
e 216 192
e 217 88
e 217 128
e 217 216
e 218 128
e 219 168
e 220 32
e 220 120
e 221 16
e 221 24
e 221 40
e 221 80
e 221 120
e 221 192
e 222 56
e 222 168
e 223 56
e 223 80
e 223 168
e 223 192
e 224 32
e 224 104
e 224 216
e 225 72
e 225 120
e 226 144
e 226 160
e 226 176
e 227 80
e 227 96
e 227 152
e 227 176
e 228 88
e 228 184
e 228 208
e 228 216
e 229 120
e 229 128
e 229 144
e 229 160
e 230 136
e 231 32
e 231 104
e 232 40
e 232 64
e 232 72
e 232 88
e 232 216
e 233 32
e 233 80
e 234 16
e 234 64
e 234 136
e 234 232
e 235 24
e 235 216
e 236 72
e 236 160
e 236 232
e 237 88
e 237 96
e 237 192
e 238 64
e 238 128
e 238 200
e 239 184
e 240 40
e 240 104
e 240 136
e 240 152
e 240 176
e 240 184
e 241 40
e 241 200
e 242 88
e 242 112
e 242 120
e 243 136
e 244 96
e 244 200
e 245 184
e 246 32
e 246 152
e 246 160
e 247 48
e 247 96
e 247 168
e 248 216
e 249 8
e 249 24
e 249 56
e 249 168
e 250 72
e 250 176
e 250 200
e 251 160
e 252 64
e 252 120
e 252 184
e 253 16
e 253 80
e 253 160
e 254 216
e 255 56
e 255 80
e 255 136
e 255 152
e 255 208
e 255 216
e 255 240
e 256 16
e 256 24
e 256 96
e 256 184
e 256 192
e 257 16
e 257 112
e 257 144
e 257 168
e 257 200
e 258 144
e 259 96
e 259 120
e 259 136
e 259 168
e 259 208
e 260 80
e 260 112
e 260 240
e 261 32
e 261 112
e 261 200
e 261 232
e 262 232
e 263 24
e 263 32
e 263 240
e 264 32
e 264 48
e 264 200
e 264 256
e 265 104
e 265 128
e 265 232
e 265 256
e 266 56
e 266 160
e 266 168
e 266 240
e 267 80
e 267 144
e 267 160
e 267 168
e 268 24
e 268 64
e 268 96
e 269 8
e 269 64
e 269 72
e 269 88
e 269 176
e 269 208
e 269 216
e 271 232
e 272 8
e 272 96
e 272 112
e 273 80
e 273 176
e 273 184
e 274 48
e 274 80
e 274 120
e 274 248
e 275 16
e 275 240
e 276 96
e 276 120
e 276 168
e 276 176
e 277 8
e 277 72
e 277 152
e 278 104
e 278 144
e 278 256
e 278 272
e 279 56
e 279 168
e 280 96
e 280 264
e 281 144
e 281 176
e 281 184
e 282 40
e 283 16
e 283 136
e 283 152
e 284 112
e 284 152
e 284 216
e 284 256
e 285 232
e 285 240
e 285 264
e 286 40
e 286 64
e 286 136
e 286 200
e 286 280
e 287 56
e 287 160
e 287 224
e 287 240
e 288 16
e 288 32
e 288 56
e 288 64
e 288 120
e 288 136
e 289 24
e 289 40
e 289 56
e 289 160
e 289 176
e 289 192
e 289 232
e 289 240
e 289 288
e 290 112
e 290 176
e 290 232
e 291 264
e 292 96
e 292 216
e 292 232
e 293 64
e 293 120
e 294 128
e 294 144
e 294 232
e 294 280
e 295 80
e 295 184
e 295 280
e 295 288
e 296 16
e 296 184
e 296 256
e 297 96
e 297 168
e 298 120
e 298 200
e 298 232
e 298 256
e 299 8
e 299 88
e 299 112
e 299 280
e 301 136
e 302 168
e 302 248
e 303 128
e 303 208
e 303 248
e 304 48
e 304 128
e 304 136
e 304 208
e 304 216
e 305 40
e 305 136
e 305 192
e 305 208
e 306 112
e 306 136
e 306 184
e 306 304
e 307 104
e 307 160
e 307 232
e 307 248
e 307 288
e 308 40
e 308 104
e 308 128
e 308 224
e 308 240
e 308 280
e 308 304
e 309 8
e 309 248
e 309 288
e 310 256
e 311 32
e 311 64
e 311 208
e 311 240
e 312 24
e 312 56
e 312 160
e 313 80
e 313 152
e 313 168
e 314 16
e 314 256
e 315 120
e 315 136
e 315 304
e 315 312
e 317 40
e 317 200
e 317 232
e 317 248
e 318 280
e 319 32
e 319 56
e 319 112
e 319 216
e 320 24
e 320 72
e 320 96
e 320 216
e 320 256
e 321 112
e 321 168
e 321 224
e 322 32
e 322 40
e 322 152
e 322 184
e 322 288
e 323 8
e 323 16
e 323 32
e 323 136
e 323 192
e 323 208
e 323 264
e 324 32
e 324 224
e 324 304
e 325 48
e 325 72
e 325 112
e 325 168
e 325 248
e 325 280
e 326 120
e 326 200
e 326 280
e 327 208
e 328 16
e 328 72
e 329 160
e 330 24
e 330 32
e 330 56
e 330 80
e 330 136
e 330 216
e 331 40
e 331 72
e 331 256
e 331 288
e 332 136
e 332 232
e 332 312
e 333 328
e 334 96
e 334 104
e 334 176
e 334 184
e 334 192
e 334 256
e 334 280
e 334 320
e 335 104
e 335 136
e 335 264
e 336 80
e 336 128
e 336 136
e 336 144
e 336 160
e 336 224
e 336 240
e 336 296
e 337 64
e 337 128
e 337 144
e 338 8
e 338 24
e 338 104
e 338 120
e 338 248
e 338 288
e 339 88
e 339 112
e 339 168
e 339 216
e 340 24
e 340 208
e 340 296
e 341 40
e 341 56
e 341 176
e 341 184
e 341 296
e 341 320
e 342 128
e 342 168
e 342 256
e 342 288
e 343 32
e 343 104
e 343 112
e 343 128
e 344 80
e 344 96
e 344 208
e 344 272
e 344 280
e 344 304
e 344 312
e 345 8
e 345 24
e 345 64
e 345 336
e 346 8
e 346 168
e 347 120
e 347 208
e 348 16
e 348 136
e 348 144
e 348 240
e 349 32
e 349 48
e 349 152
e 349 216
e 349 296
e 350 112
e 350 160
e 350 272
e 351 128
e 352 48
e 352 184
e 352 200
e 352 208
e 352 240
e 352 248
e 353 8
e 353 16
e 353 40
e 353 72
e 353 104
e 353 304
e 353 312
e 354 168
e 354 184
e 354 312
e 354 328
e 355 248
e 355 304
e 355 312
e 355 344
e 356 104
e 356 112
e 356 200
e 356 272
e 356 344
e 356 352
e 357 80
e 357 88
e 357 128
e 357 224
e 357 272
e 357 352
e 358 56
e 358 272
e 359 144
e 359 240
e 359 280
e 359 312
e 359 336
e 360 120
e 360 136
e 360 224
e 360 304
e 361 32
e 361 40
e 361 216
e 361 232
e 361 248
e 361 360
e 362 104
e 362 200
e 362 280
e 362 304
e 363 80
e 363 296
e 363 336
e 363 344
e 364 56
e 364 64
e 364 120
e 364 192
e 364 256
e 364 272
e 364 312
e 365 16
e 365 32
e 365 72
e 365 80
e 365 104
e 365 256
e 365 272
e 365 312
e 365 336
e 366 56
e 366 72
e 366 136
e 366 160
e 366 240
e 366 272
e 366 288
e 366 336
e 367 112
e 367 176
e 368 80
e 368 320
e 369 56
e 369 216
e 369 264
e 369 328
e 369 352
e 370 24
e 370 48
e 370 224
e 370 256
e 370 280
e 370 336
e 371 144
e 371 288
e 372 24
e 372 56
e 372 192
e 372 328
e 373 8
e 373 16
e 373 144
e 373 176
e 373 240
e 373 248
e 373 264
e 373 296
e 374 8
e 374 96
e 374 112
e 375 8
e 375 56
e 375 160
e 375 184
e 375 288
e 375 352
e 376 32
e 376 328
e 377 40
e 377 200
e 377 224
e 377 376
e 378 160
e 378 192
e 378 224
e 378 272
e 379 8
e 379 16
e 379 96
e 379 232
e 379 288
e 379 296
e 380 56
e 380 80
e 380 112
e 380 208
e 380 232
e 380 312
e 380 360
e 381 288
e 382 48
e 382 144
e 383 32
e 383 184
e 383 200
e 384 24
e 384 96
e 384 344
e 385 40
e 385 176
e 385 216
e 385 376
e 386 40
e 386 152
e 386 176
e 386 240
e 386 352
e 387 88
e 387 96
e 387 104
e 387 216
e 387 224
e 388 8
e 388 264
e 388 288
e 388 360
e 389 48
e 389 104
e 389 120
e 389 128
e 389 256
e 389 288
e 389 296
e 389 320
e 390 40
e 390 152
e 390 184
e 390 200
e 390 328
e 390 336
e 391 8
e 391 32
e 391 96
e 391 320
e 392 40
e 392 192
e 392 208
e 392 256
e 392 272
e 393 200
e 393 208
e 393 272
e 393 288
e 393 320
e 393 368
e 394 32
e 394 128
e 394 272
e 395 24
e 395 48
e 395 72
e 395 168
e 395 192
e 395 200
e 395 256
e 395 272
e 395 328
e 395 384
e 396 56
e 396 64
e 396 112
e 396 136
e 396 216
e 396 344
e 397 64
e 397 104
e 397 144
e 397 216
e 397 240
e 397 288
e 397 384
e 398 112
e 398 176
e 398 184
e 398 192
e 398 240
e 398 344
e 398 360
e 398 376
e 399 40
e 399 48
e 399 136
e 399 176
e 399 232
e 399 344
e 400 32
e 400 48
e 400 256
e 400 288
e 400 336
e 401 24
e 401 136
e 401 200
e 401 216
e 402 152
e 402 184
e 402 368
e 402 400
e 403 192
e 403 336
e 404 24
e 404 56
e 404 368
e 404 384
e 405 128
e 405 144
e 405 152
e 405 176
e 406 32
e 406 40
e 406 72
e 406 120
e 406 240
e 406 344
e 406 392
e 407 40
e 407 56
e 407 144
e 407 184
e 407 200
e 407 328
e 407 344
e 408 48
e 408 72
e 408 128
e 408 192
e 408 240
e 408 264
e 408 352
e 409 56
e 409 168
e 409 216
e 409 336
e 410 120
e 410 272
e 410 320
e 410 336
e 410 360
e 411 184
e 411 280
e 412 32
e 412 136
e 412 216
e 413 32
e 413 184
e 413 224
e 413 256
e 413 272
e 413 368
e 414 16
e 414 64
e 414 152
e 414 192
e 414 200
e 414 264
e 414 336
e 414 352
e 415 48
e 415 168
e 415 216
e 415 256
e 415 336
e 415 376
e 416 8
e 416 40
e 416 128
e 416 344
e 417 48
e 417 104
e 417 200
e 417 216
e 417 224
e 417 248
e 417 264
e 417 344
e 417 376
e 417 392
e 418 32
e 418 184
e 418 192
e 418 248
e 419 88
e 419 144
e 419 184
e 419 240
e 419 256
e 419 264
e 419 384
e 419 416
e 420 96
e 420 120
e 420 152
e 420 280
e 420 344
e 421 64
e 421 240
e 421 288
e 422 72
e 422 96
e 422 112
e 422 176
e 422 360
e 422 368
e 423 72
e 423 128
e 423 208
e 423 264
e 423 272
e 424 224
e 424 240
e 424 288
e 424 376
e 424 416
e 425 72
e 425 168
e 425 192
e 425 224
e 425 288
e 425 296
e 426 16
e 426 112
e 426 120
e 426 168
e 426 176
e 426 280
e 426 312
e 427 8
e 427 136
e 427 192
e 427 312
e 428 120
e 428 152
e 428 192
e 428 208
e 428 256
e 428 320
e 429 40
e 429 104
e 429 168
e 429 288
e 429 352
e 429 424
e 430 128
e 430 136
e 430 168
e 430 248
e 430 280
e 430 376
e 430 400
e 431 16
e 431 152
e 431 248
e 431 328
e 431 400
e 432 136
e 432 208
e 432 248
e 432 256
e 432 304
e 432 320
e 433 88
e 433 104
e 433 320
e 433 392
e 433 432
e 434 40
e 434 104
e 434 224
e 434 248
e 434 328
e 435 24
e 435 32
e 435 144
e 435 168
e 435 344
e 435 400
e 436 104
e 436 232
e 436 336
e 436 360
e 437 104
e 437 344
e 437 416
e 438 8
e 438 128
e 438 200
e 438 216
e 438 288
e 438 304
e 438 368
e 439 176
e 439 232
e 440 56
e 440 88
e 440 160
e 440 240
e 441 16
e 441 48
e 441 72
e 441 256
e 441 408
e 442 16
e 442 32
e 442 296
e 442 360
e 442 400
e 443 72
e 443 208
e 443 216
e 443 264
e 443 400
e 444 64
e 444 112
e 444 136
e 444 160
e 445 88
e 445 104
e 445 128
e 445 176
e 445 248
e 445 336
e 445 376
e 445 408
e 446 40
e 446 112
e 446 136
e 446 216
e 446 224
e 446 368
e 446 424
e 447 88
e 447 96
e 447 232
e 447 272
e 447 320
e 447 336
e 447 360
e 447 432
e 447 440
e 448 32
e 448 88
e 448 96
e 448 128
e 448 232
e 448 288
e 448 328
e 448 336
e 448 344
e 448 368
e 448 376
e 449 40
e 449 136
e 449 144
e 449 232
e 449 264
e 449 336
e 449 360
e 449 400
e 450 56
e 450 264
e 451 40
e 451 96
e 451 120
e 451 136
e 451 240
e 451 360
e 452 16
e 452 48
e 452 224
e 452 352
e 452 424
e 453 48
e 453 72
e 453 96
e 453 144
e 453 256
e 453 288
e 453 296
e 453 448
e 454 64
e 454 80
e 454 112
e 454 208
e 454 240
e 454 256
e 454 440
e 454 448
e 455 184
e 455 312
e 455 352
e 455 392
e 455 424
e 456 152
e 457 8
e 457 104
e 457 112
e 457 240
e 457 256
e 457 280
e 457 336
e 458 120
e 458 240
e 458 296
e 458 344
e 458 384
e 458 392
e 458 448
e 459 32
e 459 88
e 459 296
e 459 360
e 459 400
e 459 440
e 460 112
e 460 208
e 460 264
e 460 400
e 461 136
e 461 200
e 461 216
e 461 256
e 461 296
e 461 448
e 462 24
e 462 80
e 462 112
e 462 216
e 463 160
e 463 280
e 463 448
e 464 40
e 464 64
e 464 88
e 464 112
e 464 216
e 464 416
e 465 24
e 465 136
e 465 184
e 465 208
e 465 456
e 465 464
e 466 136
e 466 144
e 466 200
e 466 208
e 466 264
e 466 272
e 467 168
e 467 224
e 467 240
e 467 376
e 467 416
e 468 40
e 468 120
e 468 320
e 468 360
e 468 408
e 468 416
e 469 48
e 469 160
e 469 272
e 469 280
e 469 336
e 469 448
e 470 24
e 470 64
e 470 88
e 470 216
e 470 248
e 470 400
e 470 448
e 471 16
e 471 112
e 471 152
e 471 336
e 471 432
e 471 440
e 471 456
e 472 8
e 472 184
e 472 192
e 472 312
e 472 320
e 472 376
e 472 448
e 473 304
e 473 384
e 473 424
e 474 16
e 474 40
e 474 88
e 474 96
e 474 120
e 474 192
e 474 208
e 474 264
e 474 304
e 474 352
e 475 96
e 475 104
e 475 160
e 475 288
e 475 304
e 475 320
e 475 400
e 475 416
e 475 432
e 475 472
e 476 32
e 476 48
e 476 192
e 476 312
e 476 320
e 477 96
e 477 272
e 477 312
e 477 352
e 477 464
e 478 64
e 478 104
e 478 248
e 478 464
e 479 80
e 479 232
e 479 304
e 479 384
e 479 400
e 480 88
e 480 128
e 480 200
e 480 296
e 480 304
e 480 336
e 481 48
e 481 112
e 481 160
e 481 192
e 481 336
e 481 400
e 482 72
e 482 104
e 482 160
e 482 232
e 482 256
e 482 272
e 482 296
e 483 176
e 483 200
e 483 376
e 483 400
e 484 40
e 484 136
e 484 368
e 484 392
e 485 64
e 485 280
e 485 344
e 485 376
e 485 392
e 485 456
e 486 8
e 486 208
e 486 256
e 486 288
e 486 304
e 486 424
e 487 40
e 487 136
e 487 336
e 488 88
e 488 152
e 488 160
e 488 168
e 488 184
e 488 304
e 488 352
e 488 400
e 489 8
e 489 80
e 489 152
e 489 168
e 489 200
e 489 224
e 489 352
e 489 448
e 490 16
e 490 128
e 490 184
e 490 352
e 490 464
e 491 160
e 491 168
e 491 232
e 491 240
e 491 256
e 491 288
e 491 328
e 491 352
e 491 448
e 491 456
e 491 472
e 492 200
e 492 296
e 492 400
e 492 416
e 492 464
e 492 480
e 493 16
e 493 72
e 493 152
e 493 200
e 493 328
e 493 384
e 494 200
e 494 320
e 494 360
e 494 368
e 494 376
e 495 24
e 495 80
e 495 232
e 495 240
e 495 288
e 495 312
e 495 328
e 496 72
e 496 168
e 496 248
e 496 336
e 496 376
e 496 480
e 496 488
e 497 8
e 497 40
e 497 56
e 497 152
e 497 192
e 497 256
e 497 272
e 497 328
e 498 136
e 498 208
e 498 248
e 498 288
e 498 296
e 498 368
e 498 456
e 499 8
e 499 24
e 499 104
e 499 112
e 499 160
e 499 272
e 499 384
e 499 392
e 499 464
e 500 16
e 500 152
e 500 424
e 500 432
